(set-logic ALL_SUPPORTED)
(declare-fun v!8 () Int)
(declare-fun v!12 () Int)
(declare-fun v!16 () Int)
(assert (< v!8 3))
(assert (< v!12 3))
(assert (< v!16 3))
(declare-fun v!19 () Int)
(declare-fun t!15 () Real)
(declare-fun t!14 () Real)
(declare-fun t!16 () Real)
(declare-fun t!17 () Real)
(declare-fun t!11 () Real)
(declare-fun t!10 () Real)
(declare-fun t!12 () Real)
(declare-fun t!13 () Real)
(declare-fun t!7 () Real)
(declare-fun t!6 () Real)
(declare-fun t!8 () Real)
(declare-fun t!9 () Real)
(declare-fun t!3 () Real)
(declare-fun t!2 () Real)
(declare-fun t!4 () Real)
(declare-fun t!5 () Real)
(declare-fun t!1 () Real)
(declare-fun t!0 () Real)
(declare-fun t!18 () Real)
(declare-fun s!18 () Real)
(declare-fun s!3 () Real)
(declare-fun s!7 () Real)
(declare-fun s!11 () Real)
(declare-fun s!15 () Real)
(declare-fun rf!18 () Real)
(declare-fun v!4 () Int)
(declare-fun rf!3 () Real)
(declare-fun rf!7 () Real)
(declare-fun rf!11 () Real)
(declare-fun rf!15 () Real)
(assert (and true (<= 3 v!19)))
(assert (< 0 t!15))
(assert (< 0 t!14))
(assert (< 0 t!16))
(assert (< 0 t!17))
(assert (< 0 t!11))
(assert (< 0 t!10))
(assert (< 0 t!12))
(assert (< 0 t!13))
(assert (< 0 t!7))
(assert (< 0 t!6))
(assert (< 0 t!8))
(assert (< 0 t!9))
(assert (< 0 t!3))
(assert (< 0 t!2))
(assert (< 0 t!4))
(assert (< 0 t!5))
(assert (< 0 t!1))
(assert (< 0 t!0))
(assert (< 0 t!18))
(assert (and (and (and (and (and (and (and (and (and (and (and (and (and (and (and (and (and (and true (< t!14 t!15)) (< t!15 t!16)) (< t!16 t!17)) (< t!10 t!11)) (< t!11 t!12)) (< t!12 t!13)) (< t!6 t!7)) (< t!7 t!8)) (< t!8 t!9)) (< t!2 t!3)) (< t!3 t!4)) (< t!4 t!5)) (< t!0 t!1)) (< t!1 t!2)) (< t!2 t!6)) (< t!6 t!10)) (< t!10 t!14)) (< t!14 t!18)))
(assert (< 0 s!18))
(assert (< 0 s!3))
(assert (< 0 s!7))
(assert (< 0 s!11))
(assert (< 0 s!15))
(assert (let ((_let_0 (= 1 rf!18))) (let ((_let_1 (and true true))) (let ((_let_2 (<= t!1 t!18))) (let ((_let_3 (= 4 rf!18))) (let ((_let_4 (<= t!4 t!18))) (let ((_let_5 (= 0 rf!3))) (let ((_let_6 (<= t!0 t!3))) (let ((_let_7 (= 8 rf!3))) (let ((_let_8 (<= t!8 t!3))) (let ((_let_9 (+ v!8 1))) (let ((_let_10 (= 12 rf!3))) (let ((_let_11 (<= t!12 t!3))) (let ((_let_12 (+ v!12 1))) (let ((_let_13 (= 16 rf!3))) (let ((_let_14 (<= t!16 t!3))) (let ((_let_15 (+ v!16 1))) (let ((_let_16 (= 0 rf!7))) (let ((_let_17 (<= t!0 t!7))) (let ((_let_18 (= 8 rf!7))) (let ((_let_19 (<= t!8 t!7))) (let ((_let_20 (= 12 rf!7))) (let ((_let_21 (<= t!12 t!7))) (let ((_let_22 (= 16 rf!7))) (let ((_let_23 (<= t!16 t!7))) (let ((_let_24 (= 0 rf!11))) (let ((_let_25 (<= t!0 t!11))) (let ((_let_26 (= 8 rf!11))) (let ((_let_27 (<= t!8 t!11))) (let ((_let_28 (= 12 rf!11))) (let ((_let_29 (<= t!12 t!11))) (let ((_let_30 (= 16 rf!11))) (let ((_let_31 (<= t!16 t!11))) (let ((_let_32 (= 0 rf!15))) (let ((_let_33 (<= t!0 t!15))) (let ((_let_34 (= 8 rf!15))) (let ((_let_35 (<= t!8 t!15))) (let ((_let_36 (= 12 rf!15))) (let ((_let_37 (<= t!12 t!15))) (let ((_let_38 (= 16 rf!15))) (let ((_let_39 (<= t!16 t!15))) (and (and (and (and (and (and (and (and (and (and (and (and (and (and (and (and (and (and (and (and (and (and (and (and (and (and (and (and (and (and (and (and (and (and (and (and (and (and (and (and (and true (=> _let_0 (and (and (and _let_1 _let_2) (= 0 v!19)) (= s!18 t!1)))) (=> (and _let_2 true) (<= t!1 s!18))) (=> _let_3 (and (and (and _let_1 _let_4) (= v!4 v!19)) (= s!18 t!4)))) (=> (and _let_4 true) (<= t!4 s!18))) (=> true (or _let_3 (or _let_0 false)))) (=> _let_5 (and (and (and _let_1 _let_6) (= 0 v!4)) (= s!3 t!0)))) (=> (and _let_6 true) (<= t!0 s!3))) (=> _let_7 (and (and (and _let_1 _let_8) (= _let_9 v!4)) (= s!3 t!8)))) (=> (and _let_8 true) (<= t!8 s!3))) (=> _let_10 (and (and (and _let_1 _let_11) (= _let_12 v!4)) (= s!3 t!12)))) (=> (and _let_11 true) (<= t!12 s!3))) (=> _let_13 (and (and (and _let_1 _let_14) (= _let_15 v!4)) (= s!3 t!16)))) (=> (and _let_14 true) (<= t!16 s!3))) (=> true (or _let_13 (or _let_10 (or _let_7 (or _let_5 false)))))) (=> _let_16 (and (and (and _let_1 _let_17) (= 0 v!8)) (= s!7 t!0)))) (=> (and _let_17 true) (<= t!0 s!7))) (=> _let_18 (and (and (and _let_1 _let_19) (= _let_9 v!8)) (= s!7 t!8)))) (=> (and _let_19 true) (<= t!8 s!7))) (=> _let_20 (and (and (and _let_1 _let_21) (= _let_12 v!8)) (= s!7 t!12)))) (=> (and _let_21 true) (<= t!12 s!7))) (=> _let_22 (and (and (and _let_1 _let_23) (= _let_15 v!8)) (= s!7 t!16)))) (=> (and _let_23 true) (<= t!16 s!7))) (=> true (or _let_22 (or _let_20 (or _let_18 (or _let_16 false)))))) (=> _let_24 (and (and (and _let_1 _let_25) (= 0 v!12)) (= s!11 t!0)))) (=> (and _let_25 true) (<= t!0 s!11))) (=> _let_26 (and (and (and _let_1 _let_27) (= _let_9 v!12)) (= s!11 t!8)))) (=> (and _let_27 true) (<= t!8 s!11))) (=> _let_28 (and (and (and _let_1 _let_29) (= _let_12 v!12)) (= s!11 t!12)))) (=> (and _let_29 true) (<= t!12 s!11))) (=> _let_30 (and (and (and _let_1 _let_31) (= _let_15 v!12)) (= s!11 t!16)))) (=> (and _let_31 true) (<= t!16 s!11))) (=> true (or _let_30 (or _let_28 (or _let_26 (or _let_24 false)))))) (=> _let_32 (and (and (and _let_1 _let_33) (= 0 v!16)) (= s!15 t!0)))) (=> (and _let_33 true) (<= t!0 s!15))) (=> _let_34 (and (and (and _let_1 _let_35) (= _let_9 v!16)) (= s!15 t!8)))) (=> (and _let_35 true) (<= t!8 s!15))) (=> _let_36 (and (and (and _let_1 _let_37) (= _let_12 v!16)) (= s!15 t!12)))) (=> (and _let_37 true) (<= t!12 s!15))) (=> _let_38 (and (and (and _let_1 _let_39) (= _let_15 v!16)) (= s!15 t!16)))) (=> (and _let_39 true) (<= t!16 s!15))) (=> true (or _let_38 (or _let_36 (or _let_34 (or _let_32 false)))))))))))))))))))))))))))))))))))))))))))))))
(assert (and (and true (distinct t!1 t!4)) (distinct t!0 t!8 t!12 t!16)))
(check-sat)
